NAME: ../File/prFile/tspFile/tsp_file18.tsp
COMMENT: TSP file generated by Python
TYPE: TSP
DIMENSION: 30
EDGE_WEIGHT_TYPE: EUC_2D
NODE_COORD_SECTION
1 87 38
2 43 100
3 15 51
4 72 57
5 2 72
6 10 86
7 90 76
8 16 94
9 22 67
10 9 60
11 89 59
12 63 66
13 77 29
14 15 14
15 68 66
16 93 52
17 65 33
18 43 19
19 50 77
20 6 6
21 78 21
22 28 49
23 33 72
24 11 20
25 89 33
26 50 15
27 15 37
28 20 17
29 45 25
30 10 62
EOF
